seed= 2052018 ;
N= 150 ;
M= 3 ;
F= 5 ;
K= 8 ;
T= 42 ;

p=[ 4 4 4 4 4 4 4 4 4 4 4 4 4 4 4 4 4 4 4 4 4 4 4 4 4 4 4 4 4 4 10 10 10 10 10 10 10 10 10 10 10 10 10 10 10 10 10 10 10 10 10 10 10 10 10 10 10 10 10 10 2 2 2 2 2 2 2 2 2 2 2 2 2 2 2 2 2 2 2 2 2 2 2 2 2 2 2 2 2 2 4 4 4 4 4 4 4 4 4 4 4 4 4 4 4 4 4 4 4 4 4 4 4 4 4 4 4 4 4 4 2 2 2 2 2 2 2 2 2 2 2 2 2 2 2 2 2 2 2 2 2 2 2 2 2 2 2 2 2 2 ];
r=[ 0 0 0 0 0 0 0 0 0 0 0 0 0 0 0 0 0 0 0 0 0 0 0 0 0 0 0 0 0 0 0 0 0 0 0 0 0 0 0 0 0 0 0 0 0 0 0 0 0 0 0 0 0 0 0 0 0 0 0 0 0 0 0 0 0 0 0 0 0 0 0 0 0 0 0 0 0 0 0 0 0 0 0 0 0 0 0 0 0 0 0 0 0 0 0 0 0 0 0 0 0 0 0 0 0 0 0 0 0 0 0 0 0 0 0 0 0 0 0 0 0 0 0 0 0 0 0 0 0 0 0 0 0 0 0 0 0 0 0 0 0 0 0 0 0 0 0 0 0 0 ];
d=[ 32 28 12 37 28 26 5 24 29 32 2 4 26 30 20 26 13 7 28 8 32 35 2 41 27 3 15 4 0 19 40 19 23 34 35 11 32 5 17 19 23 10 22 27 21 39 24 22 28 41 10 9 34 34 33 34 36 0 14 40 41 25 5 16 24 33 32 25 4 27 22 3 13 31 14 23 26 3 7 10 13 33 20 39 34 5 37 27 28 22 5 27 7 22 34 25 4 13 21 19 9 39 31 39 32 21 7 14 18 23 28 27 41 26 9 30 31 23 6 28 7 6 23 15 34 38 21 1 35 8 17 21 22 0 36 19 33 30 31 33 36 30 17 12 11 38 29 6 36 39 ];
s=[ 1 1 1 1 1 1 1 1 1 1 1 1 1 1 1 1 1 1 1 1 1 1 1 1 1 1 1 1 1 1 1 1 1 1 1 1 1 1 1 1 1 1 1 1 1 1 1 1 1 1 1 1 1 1 1 1 1 1 1 1 1 1 1 1 1 1 1 1 1 1 1 1 1 1 1 1 1 1 1 1 1 1 1 1 1 1 1 1 1 1 1 1 1 1 1 1 1 1 1 1 1 1 1 1 1 1 1 1 1 1 1 1 1 1 1 1 1 1 1 1 1 1 1 1 1 1 1 1 1 1 1 1 1 1 1 1 1 1 1 1 1 1 1 1 1 1 1 1 1 1 ];
w=[ 3 5 5 4 1 3 1 2 1 2 3 3 5 4 5 3 3 5 5 2 3 2 5 4 1 2 2 3 2 1 4 3 3 2 3 4 1 2 5 4 3 4 3 3 1 2 2 3 2 4 2 1 5 4 5 3 2 4 3 4 4 2 4 3 4 4 3 3 1 2 3 4 5 2 1 5 2 2 2 2 5 1 1 5 1 1 1 5 2 1 3 5 5 2 4 1 4 1 3 2 2 3 2 3 1 2 4 3 1 1 3 4 4 2 3 1 3 1 1 3 3 1 3 1 1 1 4 2 5 3 3 3 2 2 5 5 3 1 1 4 5 1 1 1 4 1 4 3 3 2 ];
f=[ 1 1 1 1 1 1 1 1 1 1 1 1 1 1 1 1 1 1 1 1 1 1 1 1 1 1 1 1 1 1 2 2 2 2 2 2 2 2 2 2 2 2 2 2 2 2 2 2 2 2 2 2 2 2 2 2 2 2 2 2 3 3 3 3 3 3 3 3 3 3 3 3 3 3 3 3 3 3 3 3 3 3 3 3 3 3 3 3 3 3 4 4 4 4 4 4 4 4 4 4 4 4 4 4 4 4 4 4 4 4 4 4 4 4 4 4 4 4 4 4 5 5 5 5 5 5 5 5 5 5 5 5 5 5 5 5 5 5 5 5 5 5 5 5 5 5 5 5 5 5 ];

e1=[ 10 10 10 10 10 10 10 10 10 10 10 10 10 10 10 10 10 10 10 10 10 8 8 8 8 8 8 8 8 8 8 8 8 8 8 8 8 8 8 8 8 8 ];
e2=[ 10 10 10 10 10 10 10 10 10 10 10 10 10 10 9 9 9 9 9 9 9 8 8 8 8 8 8 8 8 8 8 8 8 8 8 9 9 9 9 9 9 9 ];